# 3D Tensile Test With Peridynamics
########################################
# -------- GENERAL SETTINGS ------------
########################################
units			si
dimension		3
boundary		s s s
atom_style      peri
atom_modify	map array
neighbor        0.0001 bin

########################################
# -------- CREATE GEOMETRY -------------
########################################
lattice         sc 0.005

region 			whole block -0.35 0.351 -0.5 0.501 0.0 0.026  units box 
create_box      10 whole

region 			specimen block -0.25 0.251 -0.5 0.501 0.0 0.026  units box 
create_atoms	1 region specimen

region	    1 block -0.25 0.251 -0.5 -0.4875 0.0 0.026 units box 
group		lower region 1
region		2 block -0.25 0.251 0.4875 0.501 0.0 0.026 units box 
group		upper region 2
group		boundary union lower upper

group remaining subtract all lower upper

########################################
# -------- CREATE A CRACK --------------
########################################
#region crack block -0.25 -0.2399 -0.001 0.001 0.0 0.026 units box
#set region crack lambda 0

########################################
# -------- DEFINE POTENTIAL ------------
########################################
pair_style      peri/pmb
#pair_coeff      * * 5.9683223e18 0.02001 0.00137689 0.0
pair_coeff      * * 5.9683223e18 0.02001 0.0008 0.0

set             group all density 7800
set             group all volume 1.25e-7


########################################
# -------- CALCULATION ------------
########################################
# Fixes
fix 1 all nve
fix	2 upper setforce NULL 0.0 NULL
fix	3 lower setforce NULL 0.0 NULL

# Computes
compute         1 all damage/atom
compute         2 all stress/atom NULL virial
compute         3 remaining paris/atom NULL 2 3.0e-10 3 10 1 1.25e-7


###########################################################
########## GENERATE STRESS FIELD ##########################
###########################################################

# Calculation Settings
dump            1 all custom 1 dump.peri id type x y z fx fy fz c_1 vy c_2[2] concentration temperature lambda chemPotential
thermo          1
thermo_style custom step temp pe etotal press vol ke
timestep        1.0e-7
min_style hftn

region crack block -0.2 -0.2 -0.001 0.001 0.0 0.026 units box
set region crack lambda 0
run 1
region crack2 block -0.195 -0.195 -0.001 0.001 0.0 0.026 units box
set region crack2 lambda 0
run 1
region crack3 block -0.19 -0.19 -0.001 0.001 0.0 0.026 units box
set region crack3 lambda 0
run 1
region crack4 block 0.2 0.2 -0.001 0.001 0.0 0.026 units box
set region crack4 lambda 0
run 1
region crack5 block 0.195 0.195 -0.001 0.001 0.0 0.026 units box
set region crack5 lambda 0
run 1
region crack6 block 0.19 0.19 -0.001 0.001 0.0 0.026 units box
set region crack6 lambda 0
run 1
region crack7 block  -0.001 0.001 0.2499 0.25 0.0 0.026 units box
set region crack7 lambda 0
run 1
region crack8 block  -0.001 0.001 0.245 0.2499 0.0 0.026 units box
set region crack8 lambda 0
run 1
region crack9 block  -0.001 0.001 0.24 0.2449 0.0 0.026 units box
set region crack9 lambda 0
run 1
region crack10 block  -0.001 0.001 -0.25 -0.2499 0.0 0.026 units box
set region crack10 lambda 0
run 1
region crack11 block  -0.001 0.001 -0.2499 -0.245 0.0 0.026 units box
set region crack11 lambda 0
run 1
region crack12 block  -0.001 0.001 -0.2449 -0.24 0.0 0.026 units box
set region crack12 lambda 0
run 1
region crack13 block  -0.1 -0.099 -0.1 -0.099 0.0 0.026 units box
set region crack13 lambda 0
run 1
region crack14 block  -0.099 -0.095 -0.099 -0.095 0.0 0.026 units box
set region crack14 lambda 0
run 1
region crack15 block  -0.09 -0.09 -0.09 -0.09 0.0 0.026 units box
set region crack15 lambda 0
run 1
region crack16 block  0.1 0.1 -0.1 -0.099 0.0 0.026 units box
set region crack16 lambda 0
run 1
region crack17 block  0.095 0.095 -0.099 -0.095 0.0 0.026 units box
set region crack17 lambda 0
run 1
region crack18 block  0.09 0.09 -0.09 -0.09 0.0 0.026 units box
set region crack18 lambda 0
run 1
region crack19 block  -0.1 -0.099 0.1 0.1 0.0 0.026 units box
set region crack19 lambda 0
run 1
region crack20 block  -0.099 -0.095 0.095 0.095 0.0 0.026 units box
set region crack20 lambda 0
run 1
region crack21 block  -0.09 -0.09 0.09 0.09 0.0 0.026 units box
set region crack21 lambda 0
run 1
region crack22 block  0.1 0.1 0.1 0.1 0.0 0.026 units box
set region crack22 lambda 0
run 1
region crack23 block  0.095 0.095 0.095 0.095 0.0 0.026 units box
set region crack23 lambda 0
run 1
region crack24 block  0.09 0.09 0.09 0.09 0.0 0.026 units box
set region crack24 lambda 0
run 1
# Velocity
velocity upper ramp vy -1.0 1.0 y -0.5 0.5 units box
velocity lower ramp vy -1.0 1.0 y -0.5 0.5 units box

#------------------------------------------------------#
##                  loop starts here                 ###
#------------------------------------------------------#
label loop
variable a loop 30

run 50
minimize 0.0 1e-10 10000 50000

if "${a} > 30" then "jump SELF break"
next a
jump SELF loop
label break

print "Applied Stress Field Finished"


#######################################
#          FATIGUE
#######################################

undump 1
velocity all set 0.0 0.0 0.0 units box
dump 2 all custom 10000000000000 dump_fatigue.peri* id type x y z fx fy fz c_1 vx vy vz chemPotential lambda c_3[2]
min_style fire

#-------------------- loop -------------------------#
label loop2
variable b loop 2000

minimize 1e-10 1e-10 10000 50000

if "${b} > 2000" then "jump SELF break2"
next b
jump SELF loop2
label break2

print "Fatigue Finished"




